NAME : traveling-santa-2018-prime-paths.30800.tour
COMMENT : Length = 30800
COMMENT : Found by LKH [Keld Helsgaun] Sun Jun 12 20:00:36 2022
TYPE : TOUR
DIMENSION : 100
TOUR_SECTION
1
28
9
85
15
12
57
26
70
47
83
51
96
35
36
31
41
94
6
65
14
97
61
37
84
81
39
53
69
88
21
2
40
13
22
34
89
25
56
72
33
43
8
49
11
79
30
87
59
27
16
68
82
18
95
62
45
63
75
74
92
17
60
52
90
99
78
67
77
48
4
19
7
100
20
5
55
10
86
98
66
42
46
73
54
38
58
71
64
50
29
76
91
24
80
3
23
32
44
93
-1
EOF
